12 24 6 10
5 12 18 16 18 9 8 4 17 11 11 20 10 9 2 17 8 20 3 9 7 17 1 19 
14.07 5.54 15.62 10.74 1.27 3.9 11.47 15.58 2.42 15.51 1.93 6.87 14.1 14.27 9.96 7.5 4.85 0.98 12.69 15.78 3.56 14.41 9.59 10.99 
11.55 13.09 13.43 4.52 2.06 8.02 12.97 0.59 11.01 11.74 3.39 7.32 14.37 8.98 10.27 7.55 3.58 10.39 10.91 15.32 3.16 2.46 8.13 14.49 
15.49 12.9 9.34 4.58 12.83 0.5 2.51 12.84 9.22 1.53 12.32 5.25 12.25 15.13 0.56 13.42 12.67 9.11 13.26 12.68 2.29 5.81 5.27 7.8 
14.92 11.9 7.45 8.36 3.72 8.91 10.49 1.72 13.48 8.8 5.02 13.18 8.47 9.6 9.57 1.55 7.64 7.92 1.38 9.46 8.41 12.62 13.89 15.62 
5 8.71 15.03 12.18 13.69 10.18 2.92 4.8 6.94 6.65 0.14 1.99 10.7 7.32 4.94 10.6 7.1 5.87 6.32 5.21 1.94 1.6 11.52 8.63 
1.96 10.86 7.83 7.26 15.43 2.81 2 14.57 3.81 10.55 3.05 14.8 12.67 11.1 3.42 8.64 10.97 4.57 15.89 7.96 1.51 14.79 0.92 8.8 
8 8 8 8 8 8 8 8 8 8 8 8 8 8 8 8 8 8 8 8 8 8 8 8 
2.08 6.17 8.23 11.2 2.25 7.42 12.13 2.77 12.34 15.9 8.63 9.27 8.92 6.32 10.39 7.4 0.99 7.34 3.08 8.57 6.51 8.27 10.74 8.04 
5.38 4.82 2.08 1.65 15.37 14.57 6.09 14.48 6.94 5.16 8.01 1.23 11.94 5.8 5.98 2.31 11.01 12.84 4.88 2.35 2.81 8.76 4.89 9.49 
5.03 14.31 2.26 1.69 8.65 15.69 9.25 15.86 10.32 7.43 11.59 9.24 9.83 7.83 5.08 1.02 2.9 10.06 14.82 13.8 3.84 7.48 2.95 10.18 
11.46 2.12 0.9 7.79 11.13 0.89 14.89 7.35 2.93 7.81 8.9 13.15 5.02 11.9 11.14 9.82 1.59 9.22 1.7 12.37 3.87 15.7 8.56 13.64 
11.04 7.1 6.73 13.32 7.77 10.64 14.32 8.13 3.16 9.86 13.25 14.08 6.84 9.49 3.69 2.5 11.04 6.15 12.25 0.13 13.15 9.02 14.03 14.42 
1 1 1 1 1 1 1 1 1 1 1 1 1 1 1 1 1 1 1 1 1 1 1 1 
1 1 1 1 1 1 1 1 1 1 1 1 1 1 1 1 1 1 1 1 1 1 1 1 
1 1 1 1 1 1 1 1 1 1 1 1 1 1 1 1 1 1 1 1 1 1 1 1 
1 1 1 1 1 1 1 1 1 1 1 1 1 1 1 1 1 1 1 1 1 1 1 1 
1 1 1 1 1 1 1 1 1 1 1 1 1 1 1 1 1 1 1 1 1 1 1 1 
1 1 1 1 1 1 1 1 1 1 1 1 1 1 1 1 1 1 1 1 1 1 1 1 
1 1 1 1 1 1 1 1 1 1 1 1 1 1 1 1 1 1 1 1 1 1 1 1 
1 1 1 1 1 1 1 1 1 1 1 1 1 1 1 1 1 1 1 1 1 1 1 1 
1 1 1 1 1 1 1 1 1 1 1 1 1 1 1 1 1 1 1 1 1 1 1 1 
1 1 1 1 1 1 1 1 1 1 1 1 1 1 1 1 1 1 1 1 1 1 1 1 
1 1 1 1 1 1 1 1 1 1 1 1 1 1 1 1 1 1 1 1 1 1 1 1 
1 1 1 1 1 1 1 1 1 1 1 1 1 1 1 1 1 1 1 1 1 1 1 1 
0.01 0.01 0.01 0.01 0.01 0.01 0.01 0.01 0.01 0.01 0.01 0.01 0.01 0.01 0.01 0.01 0.01 0.01 0.01 0.01 0.01 0.01 0.01 0.01 
0.02 0.02 0.02 0.02 0.02 0.02 0.02 0.02 0.02 0.02 0.02 0.02 0.02 0.02 0.02 0.02 0.02 0.02 0.02 0.02 0.02 0.02 0.02 0.02 
0.03 0.03 0.03 0.03 0.03 0.03 0.03 0.03 0.03 0.03 0.03 0.03 0.03 0.03 0.03 0.03 0.03 0.03 0.03 0.03 0.03 0.03 0.03 0.03 
0.04 0.04 0.04 0.04 0.04 0.04 0.04 0.04 0.04 0.04 0.04 0.04 0.04 0.04 0.04 0.04 0.04 0.04 0.04 0.04 0.04 0.04 0.04 0.04 
0.05 0.05 0.05 0.05 0.05 0.05 0.05 0.05 0.05 0.05 0.05 0.05 0.05 0.05 0.05 0.05 0.05 0.05 0.05 0.05 0.05 0.05 0.05 0.05 
0.06 0.06 0.06 0.06 0.06 0.06 0.06 0.06 0.06 0.06 0.06 0.06 0.06 0.06 0.06 0.06 0.06 0.06 0.06 0.06 0.06 0.06 0.06 0.06 
0.07 0.07 0.07 0.07 0.07 0.07 0.07 0.07 0.07 0.07 0.07 0.07 0.07 0.07 0.07 0.07 0.07 0.07 0.07 0.07 0.07 0.07 0.07 0.07 
0.2 0.2 0.2 0.2 0.2 0.2 0.2 0.2 0.2 0.2 0.2 0.2 0.2 0.2 0.2 0.2 0.2 0.2 0.2 0.2 0.2 0.2 0.2 0.2 
0.4 0.4 0.4 0.4 0.4 0.4 0.4 0.4 0.4 0.4 0.4 0.4 0.4 0.4 0.4 0.4 0.4 0.4 0.4 0.4 0.4 0.4 0.4 0.4 
0.6 0.6 0.6 0.6 0.6 0.6 0.6 0.6 0.6 0.6 0.6 0.6 0.6 0.6 0.6 0.6 0.6 0.6 0.6 0.6 0.6 0.6 0.6 0.6 
0.8 0.8 0.8 0.8 0.8 0.8 0.8 0.8 0.8 0.8 0.8 0.8 0.8 0.8 0.8 0.8 0.8 0.8 0.8 0.8 0.8 0.8 0.8 0.8 
1 1 1 1 1 1 1 1 1 1 1 1 1 1 1 1 1 1 1 1 1 1 1 1 
